   0    0
 128    0
 256    0
 384    0
 512    0
 640    0
 768    0
 896    0
1024    0
1152    0
   0  128
 128  128
 256  128
 384  128
 512  128
 640  128
 768  128
 896  128
1024  128
1152  128
   0  256
 128  256
 256  256
 384  256
 512  256
 640  256
 768  256
 896  256
1024  256
1152  256
   0  384
 128  384
 256  384
 384  384
 512  384
 640  384
 768  384
 896  384
1024  384
1152  384
   0  512
 128  512
 256  512
 384  512
 512  512
 640  512
 768  512
 896  512
1024  512
1152  512
   0  640
 128  640
 256  640
 384  640
 512  640
 640  640
 768  640
 896  640
1024  640
1152  640
